c FILE /home/rafael/Documents/HappySet/MIHS/inputs/happygen/output/graph_d_regular_k5_p0.5_v100_20241127_084052.txt
c SOURCE This is a d-regular graph formed for the happy graph colouring problem.
c DESCRIPTION It was generated using the problem generator of Rhyd Lewis
c
c GRAPH STATS
c Seed                             = -277875697
c Number of Nodes                  = 100
c Number of colours k              = 5
c Number of pre-assignments        = 50
c Degree of all vertices           = 6
c Density                          = 0.0606061
c 
c The degrees of nodes 1 to 100, respectively, are as follows 
c [6, 6, 6, 6, 6, 6, 6, 6, 6, 6, 6, 6, 6, 6, 6, 6, 6, 6, 6, 6, 6, 6, 6, 6, 6, 6, 
c  6, 6, 6, 6, 6, 6, 6, 6, 6, 6, 6, 6, 6, 6, 6, 6, 6, 6, 6, 6, 6, 6, 6, 6, 6, 
c  6, 6, 6, 6, 6, 6, 6, 6, 6, 6, 6, 6, 6, 6, 6, 6, 6, 6, 6, 6, 6, 6, 6, 6, 6, 
c  6, 6, 6, 6, 6, 6, 6, 6, 6, 6, 6, 6, 6, 6, 6, 6, 6, 6, 6, 6, 6, 6, 6, 6] 
c  
p edge 100 300 5
e 1 30
e 1 36
e 1 40
e 1 43
e 1 85
e 1 89
e 2 24
e 2 26
e 2 29
e 2 53
e 2 58
e 2 61
e 3 29
e 3 30
e 3 43
e 3 54
e 3 73
e 3 83
e 4 15
e 4 21
e 4 29
e 4 73
e 4 74
e 4 93
e 5 14
e 5 15
e 5 41
e 5 56
e 5 80
e 5 97
e 6 20
e 6 21
e 6 50
e 6 60
e 6 75
e 6 79
e 7 28
e 7 32
e 7 35
e 7 46
e 7 75
e 7 92
e 8 9
e 8 16
e 8 19
e 8 33
e 8 57
e 8 71
e 9 12
e 9 48
e 9 71
e 9 84
e 9 93
e 10 15
e 10 19
e 10 26
e 10 52
e 10 61
e 10 92
e 11 56
e 11 70
e 11 78
e 11 80
e 11 81
e 11 92
e 12 13
e 12 35
e 12 53
e 12 54
e 12 56
e 13 28
e 13 47
e 13 68
e 13 89
e 13 93
e 14 33
e 14 59
e 14 62
e 14 68
e 14 69
e 15 31
e 15 64
e 15 84
e 16 33
e 16 63
e 16 80
e 16 92
e 16 95
e 17 18
e 17 20
e 17 36
e 17 66
e 17 78
e 17 94
e 18 24
e 18 34
e 18 56
e 18 78
e 18 90
e 19 32
e 19 71
e 19 85
e 19 99
e 20 38
e 20 57
e 20 82
e 20 88
e 21 50
e 21 82
e 21 91
e 21 95
e 22 46
e 22 58
e 22 70
e 22 84
e 22 87
e 22 91
e 23 28
e 23 47
e 23 67
e 23 77
e 23 88
e 23 90
e 24 31
e 24 36
e 24 60
e 24 95
e 25 53
e 25 57
e 25 68
e 25 76
e 25 89
e 25 99
e 26 29
e 26 30
e 26 61
e 26 69
e 27 28
e 27 43
e 27 61
e 27 65
e 27 74
e 27 83
e 28 45
e 28 98
e 29 62
e 29 70
e 30 46
e 30 62
e 30 65
e 31 39
e 31 49
e 31 80
e 31 98
e 32 33
e 32 43
e 32 53
e 32 88
e 33 35
e 33 44
e 34 37
e 34 41
e 34 58
e 34 73
e 34 77
e 35 52
e 35 74
e 35 82
e 36 37
e 36 40
e 36 56
e 37 45
e 37 63
e 37 90
e 37 100
e 38 47
e 38 48
e 38 77
e 38 79
e 38 99
e 39 46
e 39 48
e 39 81
e 39 82
e 39 94
e 40 67
e 40 79
e 40 87
e 40 96
e 41 85
e 41 93
e 41 98
e 41 99
e 42 48
e 42 70
e 42 77
e 42 81
e 42 82
e 42 93
e 43 50
e 43 91
e 44 66
e 44 73
e 44 88
e 44 97
e 44 100
e 45 57
e 45 68
e 45 69
e 45 91
e 46 52
e 46 97
e 47 54
e 47 68
e 47 96
e 48 65
e 48 69
e 49 50
e 49 55
e 49 57
e 49 61
e 49 64
e 50 51
e 50 55
e 51 70
e 51 72
e 51 74
e 51 84
e 51 92
e 52 55
e 52 60
e 52 62
e 53 72
e 53 75
e 54 58
e 54 83
e 54 100
e 55 66
e 55 88
e 55 99
e 56 100
e 57 96
e 58 71
e 58 82
e 59 67
e 59 75
e 59 78
e 59 86
e 59 89
e 60 76
e 60 78
e 60 86
e 61 62
e 62 85
e 63 64
e 63 67
e 63 74
e 63 87
e 64 65
e 64 68
e 64 87
e 65 77
e 65 93
e 66 71
e 66 86
e 66 97
e 67 89
e 67 98
e 69 86
e 69 98
e 70 100
e 71 83
e 72 73
e 72 75
e 72 85
e 72 89
e 73 79
e 74 100
e 75 97
e 76 77
e 76 81
e 76 83
e 76 90
e 78 80
e 79 87
e 79 94
e 80 95
e 81 83
e 81 94
e 84 86
e 84 95
e 85 96
e 86 94
e 87 90
e 88 91
e 90 96
e 91 95
e 92 97
e 94 99
e 96 98
n 8 2
n 12 2
n 17 4
n 19 2
n 24 4
n 25 2
n 26 4
n 27 4
n 29 4
n 30 4
n 31 4
n 33 2
n 37 3
n 40 2
n 44 2
n 46 4
n 47 2
n 48 4
n 50 4
n 52 4
n 53 2
n 55 4
n 56 2
n 57 2
n 58 3
n 60 4
n 61 4
n 64 2
n 67 2
n 68 2
n 69 4
n 70 4
n 72 2
n 73 2
n 74 4
n 75 2
n 77 2
n 78 4
n 79 2
n 80 4
n 81 1
n 82 3
n 84 4
n 85 2
n 86 4
n 89 2
n 90 3
n 91 2
n 92 4
n 93 5
